c Generated map
c Size: 10 * 10, weights in range: 1 to 10, walls: True, with ratio 0.05
c dim 4 of 6
c
p sp 100 162
c graph contains 100 nodes and 162 arcs
c
a 1 11 8
a 11 1 8
a 1 2 7
a 2 1 7
a 2 12 8
a 12 2 8
a 2 3 9
a 3 2 9
a 3 4 9
a 4 3 9
a 4 14 8
a 14 4 8
a 4 5 3
a 5 4 3
a 5 15 4
a 15 5 4
a 5 6 8
a 6 5 8
a 6 16 7
a 16 6 7
a 6 7 3
a 7 6 3
a 7 17 1
a 17 7 1
a 7 8 1
a 8 7 1
a 8 18 8
a 18 8 8
a 8 9 10
a 9 8 10
a 9 19 8
a 19 9 8
a 9 10 8
a 10 9 8
a 10 20 10
a 20 10 10
a 11 21 10
a 21 11 10
a 11 12 1
a 12 11 1
a 12 22 10
a 22 12 10
a 14 24 7
a 24 14 7
a 14 15 3
a 15 14 3
a 15 25 10
a 25 15 10
a 15 16 3
a 16 15 3
a 16 26 7
a 26 16 7
a 16 17 2
a 17 16 2
a 17 27 8
a 27 17 8
a 17 18 7
a 18 17 7
a 18 28 8
a 28 18 8
a 18 19 8
a 19 18 8
a 19 29 10
a 29 19 10
a 19 20 7
a 20 19 7
a 20 30 1
a 30 20 1
a 21 22 3
a 22 21 3
a 22 32 1
a 32 22 1
a 22 23 2
a 23 22 2
a 23 24 7
a 24 23 7
a 24 34 10
a 34 24 10
a 24 25 6
a 25 24 6
a 25 35 7
a 35 25 7
a 25 26 10
a 26 25 10
a 26 36 10
a 36 26 10
a 26 27 9
a 27 26 9
a 27 37 7
a 37 27 7
a 27 28 8
a 28 27 8
a 28 38 9
a 38 28 9
a 28 29 2
a 29 28 2
a 29 39 9
a 39 29 9
a 29 30 1
a 30 29 1
a 30 40 1
a 40 30 1
a 32 42 2
a 42 32 2
a 34 44 3
a 44 34 3
a 34 35 7
a 35 34 7
a 35 45 10
a 45 35 10
a 35 36 4
a 36 35 4
a 36 46 9
a 46 36 9
a 36 37 9
a 37 36 9
a 37 47 3
a 47 37 3
a 37 38 5
a 38 37 5
a 38 39 8
a 39 38 8
a 39 49 2
a 49 39 2
a 39 40 7
a 40 39 7
a 40 50 10
a 50 40 10
a 41 51 7
a 51 41 7
a 41 42 1
a 42 41 1
a 42 52 8
a 52 42 8
a 42 43 6
a 43 42 6
a 43 53 5
a 53 43 5
a 43 44 4
a 44 43 4
a 44 54 8
a 54 44 8
a 44 45 8
a 45 44 8
a 45 55 7
a 55 45 7
a 45 46 1
a 46 45 1
a 46 56 5
a 56 46 5
a 46 47 4
a 47 46 4
a 47 57 4
a 57 47 4
a 49 59 8
a 59 49 8
a 49 50 9
a 50 49 9
a 50 60 8
a 60 50 8
a 51 61 3
a 61 51 3
a 51 52 9
a 52 51 9
a 52 62 5
a 62 52 5
a 52 53 6
a 53 52 6
a 53 63 6
a 63 53 6
a 53 54 7
a 54 53 7
a 54 64 4
a 64 54 4
a 54 55 4
a 55 54 4
a 55 65 10
a 65 55 10
a 55 56 9
a 56 55 9
a 56 66 6
a 66 56 6
a 56 57 6
a 57 56 6
a 57 67 5
a 67 57 5
a 57 58 8
a 58 57 8
a 58 68 7
a 68 58 7
a 58 59 4
a 59 58 4
a 59 69 6
a 69 59 6
a 59 60 1
a 60 59 1
a 60 70 1
a 70 60 1
a 61 71 3
a 71 61 3
a 61 62 6
a 62 61 6
a 62 72 9
a 72 62 9
a 62 63 4
a 63 62 4
a 63 73 9
a 73 63 9
a 63 64 1
a 64 63 1
a 64 74 1
a 74 64 1
a 64 65 10
a 65 64 10
a 65 75 1
a 75 65 1
a 65 66 3
a 66 65 3
a 66 76 1
a 76 66 1
a 66 67 4
a 67 66 4
a 67 77 3
a 77 67 3
a 67 68 7
a 68 67 7
a 68 78 4
a 78 68 4
a 68 69 5
a 69 68 5
a 69 79 1
a 79 69 1
a 69 70 7
a 70 69 7
a 70 80 2
a 80 70 2
a 71 81 7
a 81 71 7
a 71 72 6
a 72 71 6
a 72 82 4
a 82 72 4
a 72 73 2
a 73 72 2
a 73 83 9
a 83 73 9
a 73 74 10
a 74 73 10
a 74 84 1
a 84 74 1
a 74 75 2
a 75 74 2
a 75 85 1
a 85 75 1
a 75 76 9
a 76 75 9
a 76 86 3
a 86 76 3
a 76 77 7
a 77 76 7
a 77 87 1
a 87 77 1
a 77 78 1
a 78 77 1
a 78 88 6
a 88 78 6
a 78 79 4
a 79 78 4
a 79 89 8
a 89 79 8
a 79 80 10
a 80 79 10
a 81 91 10
a 91 81 10
a 81 82 4
a 82 81 4
a 82 92 6
a 92 82 6
a 82 83 6
a 83 82 6
a 83 93 7
a 93 83 7
a 83 84 2
a 84 83 2
a 84 94 10
a 94 84 10
a 84 85 9
a 85 84 9
a 85 95 5
a 95 85 5
a 85 86 3
a 86 85 3
a 86 96 8
a 96 86 8
a 86 87 2
a 87 86 2
a 87 97 8
a 97 87 8
a 87 88 7
a 88 87 7
a 88 98 9
a 98 88 9
a 88 89 1
a 89 88 1
a 89 99 3
a 99 89 3
a 91 92 2
a 92 91 2
a 92 93 2
a 93 92 2
a 93 94 8
a 94 93 8
a 94 95 5
a 95 94 5
a 95 96 9
a 96 95 9
a 96 97 2
a 97 96 2
a 97 98 6
a 98 97 6
a 98 99 4
a 99 98 4
a 99 100 7
a 100 99 7
